
Gurobi 10.0.3 (win64, C++) logging started Tue Feb  6 17:39:22 2024

Set parameter TokenServer to value "141.30.89.215"
Set parameter Threads to value 8
Set parameter LazyConstraints to value 1
Set parameter PreCrush to value 1
Set parameter TimeLimit to value 28800
Set parameter SolutionLimit to value 10000
Gurobi Optimizer version 10.0.3 build v10.0.3rc0 (win64)

CPU model: AMD EPYC 7513 32-Core Processor, instruction set [SSE2|AVX|AVX2]
Thread count: 16 physical cores, 16 logical processors, using up to 8 threads

Optimize a model with 137 rows, 256 columns and 720 nonzeros
Model fingerprint: 0xa6423194
Variable types: 0 continuous, 256 integer (256 binary)
Coefficient statistics:
  Matrix range     [1e+00, 1e+00]
  Objective range  [8e+00, 6e+01]
  Bounds range     [1e+00, 1e+00]
  RHS range        [1e+00, 5e+00]

User MIP start produced solution with objective 350.582 (0.00s)
Loaded user MIP start with objective 350.582

Presolve removed 2 rows and 18 columns
Presolve time: 0.00s
Presolved: 135 rows, 238 columns, 669 nonzeros
Variable types: 0 continuous, 238 integer (238 binary)

Root relaxation: objective 2.862678e+02, 57 iterations, 0.00 seconds (0.00 work units)

    Nodes    |    Current Node    |     Objective Bounds      |     Work
 Expl Unexpl |  Obj  Depth IntInf | Incumbent    BestBd   Gap | It/Node Time

     0     0  286.26777    0    -  350.58163  286.26777  18.3%     -    0s
     0     0  294.19409    0    -  350.58163  294.19409  16.1%     -    0s
     0     0  295.17078    0   24  350.58163  295.17078  15.8%     -    0s
     0     0  304.20774    0    4  350.58163  304.20774  13.2%     -    0s
     0     0  312.65900    0   28  350.58163  312.65900  10.8%     -    0s
     0     0  315.33618    0   22  350.58163  315.33618  10.1%     -    0s
     0     0  318.56417    0   30  350.58163  318.56417  9.13%     -    0s
     0     0  321.33504    0    -  350.58163  321.33504  8.34%     -    0s
     0     0  323.01789    0   34  350.58163  323.01789  7.86%     -    0s
     0     0  324.08663    0   10  350.58163  324.08663  7.56%     -    0s
     0     0  324.84406    0   50  350.58163  324.84406  7.34%     -    0s
     0     0  325.11572    0   42  350.58163  325.11572  7.26%     -    0s
     0     0  325.25558    0   47  350.58163  325.25558  7.22%     -    0s
     0     0  325.64040    0   49  350.58163  325.64040  7.11%     -    0s
     0     0  325.83761    0   52  350.58163  325.83761  7.06%     -    0s
     0     0  325.88557    0   51  350.58163  325.88557  7.04%     -    0s
     0     0  325.95331    0   53  350.58163  325.95331  7.02%     -    0s
     0     0  325.99994    0   55  350.58163  325.99994  7.01%     -    0s
     0     0  326.00435    0   56  350.58163  326.00435  7.01%     -    0s
     0     0  326.00762    0   58  350.58163  326.00762  7.01%     -    0s
     0     0  326.00762    0   52  350.58163  326.00762  7.01%     -    0s
     0     2  326.00762    0   51  350.58163  326.00762  7.01%     -    0s
H   48    28                     334.9638862  326.61064  2.49%  18.8    1s

Cutting planes:
  User: 187
  Clique: 1
  MIR: 1
  Lazy constraints: 49

Explored 230 nodes (3315 simplex iterations) in 2.45 seconds (0.23 work units)
Thread count was 8 (of 16 available processors)

Solution count 2: 334.964 350.582 

Optimal solution found (tolerance 1.00e-04)
Best objective 3.349638862376e+02, best bound 3.349638862376e+02, gap 0.0000%

User-callback calls 882, time in user-callback 2.11 sec
### START EXACT APPROACH ###
ProblemVariant: 6
### START PREPROCESSING ###
## Start infeasible path procedure ## 
Deleted arcs: 2
Infeasible tail paths: 0
Infeasible 2-node combinations: 1
Deleted arcs: 2
Infeasible tail paths: 0
Infeasible 2-node combinations: 1
## Start start solution procedure ##
Start solution with 5 Vehicles and total costs 350.582 in 0.0012815 s.
### END PREPROCESSING ###
Route 0 0-1-3-2-0 : weight util 0.963636 | volume util 0.287511 | 
Route 1 0-4-13-14-0 : weight util 0.963636 | volume util 0.411000 | 
Route 2 0-5-11-6-0 : weight util 1.000000 | volume util 0.366000 | 
Route 3 0-7-8-0 : weight util 0.763636 | volume util 0.217111 | 
Route 4 0-12-15-10-9-0 : weight util 1.000000 | volume util 0.379378 | 
